# test
# ! B3LYP DEF2-SVP OPT

# XTB2 test
! OPT NUMFREQ XTB2 RKS TightSCF TightOpt SlowConv NOSOSCF
 
%scf
MaxIter 800
DIISMaxEq 15
directresetfreq 4
end
 
# %pal
# nprocs 1
# end

%geom
MaxIter 2000
end

%freq
Temp 398.15
end

%PAL NPROCS 20 END
* xyz 0 1
C          9.14060       -3.32598        5.55145
N          7.28681       -4.83094        6.51362
C          8.24933       -4.53880        5.43854
C          7.44658       -4.15965        4.16174
C          6.66632       -5.31064        3.48378
C          5.94299       -4.75717        2.27988
O          6.02749       -3.58312        1.95776
O          5.17827       -5.59561        1.57936
O          8.69847       -2.18850        5.51425
O         10.41664       -3.55781        5.24085
C          7.53929       -5.35755        7.74920
N          8.61502       -5.24523        8.57764
O          6.61075       -5.98991        8.22740
C          9.61708       -4.18756        8.53412
C          9.09212       -2.82866        9.08010
C          7.68449       -2.52418        8.52801
C          7.31127       -1.02997        8.42174
C          6.10121       -0.94438        7.46113
N          5.70659        0.42288        7.17915
C         10.77557       -4.58548        9.42168
O         10.59292       -4.88502       10.59029
O         12.02007       -4.53964        8.93586
C          4.93035        0.72334        6.11388
C          4.49789       -0.31897        5.09965
C          5.51374       -0.57567        3.95580
O          4.44474        1.83959        6.03643
N          3.21821        0.07319        4.54100
N          5.34423        1.84767        3.11040
C          5.68181        0.55351        2.93503
C          6.47595        0.47542        1.78807
C          6.60309        1.77410        1.29973
C          7.35030        2.28176        0.23822
C          7.34482        3.66652        0.04887
C          6.63820        4.51124        0.91414
C          5.90068        3.99359        1.98306
C          5.88627        2.61001        2.14414
C          2.19521        0.26993        5.39320
O          2.32264        0.03465        6.58422
C          0.86769        0.82398        4.94730
C          0.57121        0.89010        3.42595
C          1.24060        2.08289        2.69934
C          0.95690        3.43316        3.39278
C          1.40697        3.32973        4.87195
C          0.69125        2.19486        5.64195
C         -0.51986        3.88409        3.28538
N         -1.08081        3.89288        1.94830
N         -3.47617        3.58330        4.13273
N         -3.78997        0.32468        5.94738
N         -4.22573        2.57962        8.09864
N         -3.09916        5.59375        7.19930
C         -4.34451        0.14810        7.30267
C         -3.73581        1.18982        8.27782
C         -3.27193        3.55588        8.68316
C         -3.58688        5.06495        8.49170
C         -3.91289        5.12584        6.05496
C         -2.96730        4.74005        4.90505
C         -3.18155        2.23100        4.65907
C         -4.38727        1.39697        5.12430
C         -5.64734        2.74214        8.49584
C         -3.39036       -0.91004        5.24146
C         -2.84518        7.05468        7.21515
C         -3.58573        3.73303        2.66419
C         -2.41470        3.84096        1.69619
C         -1.78153        7.46761        6.22955
C         -5.91737        3.54789        9.74214
C         -2.22401       -1.55715        5.94547
O         -2.76199        3.91275        0.52841
O         -5.54266        3.03841       10.91583
O         -6.67299        4.50553        9.70924
O         -1.64280       -1.00405        6.86456
O         -1.76406       -2.70609        5.44716
O         -1.00617        6.65640        5.75236
O         -1.47023        8.76535        6.19681
H          6.34912       -4.98282        6.20571
H          8.85891       -5.43245        5.23625
H          8.15011       -3.77259        3.40772
H          6.73598       -3.35987        4.42202
H          5.92429       -5.75145        4.16428
H          7.37357       -6.09113        3.16614
H          5.19417       -6.47453        1.93857
H         10.89657       -2.74068        5.16994
H          8.53743       -5.71404        9.45883
H          9.97947       -4.09024        7.51550
H          9.80176       -2.04323        8.77929
H          9.02654       -2.84700       10.17870
H          6.91548       -3.07726        9.08878
H          7.69297       -2.87591        7.50236
H          8.14444       -0.46186        7.98071
H          7.06659       -0.61675        9.41189
H          5.25204       -1.48770        7.90264
H          6.38804       -1.43068        6.52119
H          5.88789        1.12024        7.87289
H         12.07162       -4.27625        8.02542
H          4.32576       -1.27936        5.60791
H          6.50944       -0.80118        4.36044
H          5.15945       -1.45298        3.39355
H          3.14043        0.16246        3.55233
H          4.74772        2.21197        3.82966
H          7.00667       -0.40101        1.43362
H          7.91462        1.62511       -0.41410
H          7.90934        4.09481       -0.77219
H          6.67282        5.58415        0.76036
H          5.38090        4.64549        2.67629
H          0.12239        0.13642        5.37539
H         -0.51376        0.99376        3.29420
H          0.86993       -0.05537        2.94863
H          0.87979        2.11109        1.66084
H          2.33122        1.96679        2.67032
H          1.56883        4.20333        2.89788
H          1.21047        4.28331        5.38522
H          2.48874        3.13388        4.89826
H         -0.37278        2.41661        5.75636
H          1.10872        2.14607        6.65893
H         -1.09603        3.18550        3.87544
H         -0.58408        4.89794        3.70396
H         -0.45093        4.03865        1.18496
H         -5.44179        0.17519        7.26368
H         -4.04940       -0.84340        7.67817
H         -2.64671        1.15235        8.12410
H         -3.94175        0.86291        9.30716
H         -3.20354        3.35382        9.76226
H         -2.27285        3.40068        8.24752
H         -3.03607        5.56151        9.30454
H         -4.64940        5.31230        8.60151
H         -4.45475        4.21853        6.33981
H         -4.64782        5.87325        5.71994
H         -2.02534        4.48330        5.40674
H         -2.81141        5.61503        4.25623
H         -2.65332        1.63240        3.90535
H         -2.56655        2.31793        5.56293
H         -4.94539        0.99042        4.26726
H         -5.06060        2.01908        5.72849
H         -6.13784        1.77037        8.64183
H         -6.15847        3.24560        7.66246
H         -3.07545       -0.67200        4.21482
H         -4.24630       -1.60023        5.20106
H         -2.46269        7.36268        8.19933
H         -3.77923        7.60435        7.02443
H         -4.19567        4.63452        2.50203
H         -4.18549        2.87641        2.32120
H         -5.05732        2.22933       10.81915
H         -2.27777       -3.00369        4.70573
H         -2.05598        9.29110        6.72887
*
